
Gurobi 7.0.2 (mac64, Python) logging started Wed Sep 12 17:47:28 2018


Gurobi 7.0.2 (mac64, Python) logging started Wed Sep 12 17:50:31 2018


Gurobi 7.0.2 (mac64, Python) logging started Wed Sep 12 17:56:34 2018


Gurobi 7.0.2 (mac64, Python) logging started Wed Sep 12 17:57:11 2018


Gurobi 7.0.2 (mac64, Python) logging started Wed Sep 12 17:58:55 2018


Gurobi 7.0.2 (mac64, Python) logging started Wed Sep 12 18:04:19 2018


Gurobi 7.0.2 (mac64, Python) logging started Thu Sep 13 09:43:10 2018


Gurobi 7.0.2 (mac64, Python) logging started Thu Sep 13 09:46:29 2018


Gurobi 7.0.2 (mac64, Python) logging started Thu Sep 13 09:58:30 2018


Gurobi 7.0.2 (mac64, Python) logging started Thu Sep 13 10:02:30 2018


Gurobi 7.0.2 (mac64, Python) logging started Thu Sep 13 10:06:09 2018


Gurobi 7.0.2 (mac64, Python) logging started Thu Sep 13 10:07:26 2018


Gurobi 7.0.2 (mac64, Python) logging started Thu Sep 13 10:09:55 2018


Gurobi 7.0.2 (mac64, Python) logging started Thu Sep 13 10:10:19 2018


Gurobi 7.0.2 (mac64, Python) logging started Thu Sep 13 10:16:12 2018


Gurobi 7.0.2 (mac64, Python) logging started Thu Sep 13 10:16:31 2018


Gurobi 7.0.2 (mac64, Python) logging started Thu Sep 13 10:17:01 2018


Gurobi 7.0.2 (mac64, Python) logging started Thu Sep 13 10:19:35 2018


Gurobi 7.0.2 (mac64, Python) logging started Thu Sep 13 10:20:13 2018


Gurobi 7.0.2 (mac64, Python) logging started Thu Sep 13 10:20:47 2018


Gurobi 7.0.2 (mac64, Python) logging started Thu Sep 13 10:21:08 2018


Gurobi 7.0.2 (mac64, Python) logging started Thu Sep 13 10:24:19 2018


Gurobi 7.0.2 (mac64, Python) logging started Thu Sep 13 10:30:12 2018


Gurobi 7.0.2 (mac64, Python) logging started Thu Sep 13 10:30:51 2018


Gurobi 7.0.2 (mac64, Python) logging started Thu Sep 13 10:33:44 2018


Gurobi 7.0.2 (mac64, Python) logging started Thu Sep 13 10:34:38 2018


Gurobi 7.0.2 (mac64, Python) logging started Thu Sep 13 10:35:53 2018


Gurobi 7.0.2 (mac64, Python) logging started Thu Sep 13 10:40:46 2018


Gurobi 7.0.2 (mac64, Python) logging started Thu Sep 13 11:16:16 2018


Gurobi 7.0.2 (mac64, Python) logging started Thu Sep 13 11:16:53 2018


Gurobi 7.0.2 (mac64, Python) logging started Thu Sep 13 11:18:32 2018


Gurobi 7.0.2 (mac64, Python) logging started Thu Sep 13 11:20:33 2018


Gurobi 7.0.2 (mac64, Python) logging started Thu Sep 13 11:27:37 2018


Gurobi 7.0.2 (mac64, Python) logging started Thu Sep 13 11:32:36 2018


Gurobi 7.0.2 (mac64, Python) logging started Thu Sep 13 12:02:10 2018


Gurobi 7.0.2 (mac64, Python) logging started Thu Sep 13 12:07:01 2018


Gurobi 7.0.2 (mac64, Python) logging started Thu Sep 13 12:09:58 2018


Gurobi 7.0.2 (mac64, Python) logging started Thu Sep 13 12:14:52 2018


Gurobi 7.0.2 (mac64, Python) logging started Thu Sep 13 12:29:04 2018


Gurobi 7.0.2 (mac64, Python) logging started Thu Sep 13 12:29:31 2018


Gurobi 7.0.2 (mac64, Python) logging started Thu Sep 13 13:51:12 2018


Gurobi 7.0.2 (mac64, Python) logging started Thu Sep 13 13:56:23 2018


Gurobi 7.0.2 (mac64, Python) logging started Thu Sep 13 13:56:48 2018


Gurobi 7.0.2 (mac64, Python) logging started Thu Sep 13 13:59:03 2018


Gurobi 7.0.2 (mac64, Python) logging started Thu Sep 13 13:59:15 2018


Gurobi 7.0.2 (mac64, Python) logging started Thu Sep 13 13:59:24 2018


Gurobi 7.0.2 (mac64, Python) logging started Thu Sep 13 14:04:02 2018


Gurobi 7.0.2 (mac64, Python) logging started Thu Sep 13 14:04:29 2018


Gurobi 7.0.2 (mac64, Python) logging started Thu Sep 13 14:05:08 2018


Gurobi 7.0.2 (mac64, Python) logging started Thu Sep 13 14:05:24 2018


Gurobi 7.0.2 (mac64, Python) logging started Thu Sep 13 14:07:50 2018


Gurobi 7.0.2 (mac64, Python) logging started Thu Sep 13 14:08:15 2018


Gurobi 7.0.2 (mac64, Python) logging started Thu Sep 13 14:09:37 2018


Gurobi 7.0.2 (mac64, Python) logging started Thu Sep 13 14:11:25 2018


Gurobi 7.0.2 (mac64, Python) logging started Thu Sep 13 14:12:04 2018


Gurobi 7.0.2 (mac64, Python) logging started Thu Sep 13 14:12:12 2018


Gurobi 7.0.2 (mac64, Python) logging started Thu Sep 13 14:12:20 2018


Gurobi 7.0.2 (mac64, Python) logging started Thu Sep 13 14:12:54 2018


Gurobi 7.0.2 (mac64, Python) logging started Thu Sep 13 14:13:57 2018


Gurobi 7.0.2 (mac64, Python) logging started Thu Sep 13 14:20:41 2018


Gurobi 7.0.2 (mac64, Python) logging started Thu Sep 13 14:21:42 2018


Gurobi 7.0.2 (mac64, Python) logging started Thu Sep 13 14:21:48 2018


Gurobi 7.0.2 (mac64, Python) logging started Thu Sep 13 14:32:23 2018


Gurobi 7.0.2 (mac64, Python) logging started Thu Sep 13 14:32:56 2018


Gurobi 7.0.2 (mac64, Python) logging started Thu Sep 13 14:34:43 2018


Gurobi 7.0.2 (mac64, Python) logging started Thu Sep 13 14:36:40 2018


Gurobi 7.0.2 (mac64, Python) logging started Thu Sep 13 14:44:34 2018


Gurobi 7.0.2 (mac64, Python) logging started Thu Sep 13 14:45:43 2018


Gurobi 7.0.2 (mac64, Python) logging started Thu Sep 13 14:46:06 2018


Gurobi 7.0.2 (mac64, Python) logging started Thu Sep 13 15:19:24 2018


Gurobi 7.0.2 (mac64, Python) logging started Thu Sep 13 15:37:29 2018


Gurobi 7.0.2 (mac64, Python) logging started Thu Sep 13 15:54:04 2018


Gurobi 7.0.2 (mac64, Python) logging started Thu Sep 13 16:14:06 2018


Gurobi 7.0.2 (mac64, Python) logging started Thu Sep 13 16:34:23 2018


Gurobi 7.0.2 (mac64, Python) logging started Thu Sep 13 17:12:00 2018


Gurobi 7.0.2 (mac64, Python) logging started Thu Sep 13 18:04:02 2018


Gurobi 7.0.2 (mac64, Python) logging started Wed Sep 19 10:39:16 2018


Gurobi 7.0.2 (mac64, Python) logging started Wed Sep 19 10:44:57 2018


Gurobi 7.0.2 (mac64, Python) logging started Wed Sep 19 11:13:00 2018


Gurobi 7.0.2 (mac64, Python) logging started Wed Sep 19 11:15:21 2018


Gurobi 7.0.2 (mac64, Python) logging started Wed Sep 19 11:16:37 2018


Gurobi 7.0.2 (mac64, Python) logging started Wed Sep 19 11:18:12 2018


Gurobi 7.0.2 (mac64, Python) logging started Wed Sep 19 11:25:45 2018


Gurobi 7.0.2 (mac64, Python) logging started Wed Sep 19 11:28:14 2018


Gurobi 7.0.2 (mac64, Python) logging started Wed Sep 19 11:29:08 2018


Gurobi 7.0.2 (mac64, Python) logging started Wed Sep 19 11:30:20 2018


Gurobi 7.0.2 (mac64, Python) logging started Wed Sep 19 11:31:44 2018


Gurobi 7.0.2 (mac64, Python) logging started Wed Sep 19 11:32:35 2018


Gurobi 7.0.2 (mac64, Python) logging started Wed Sep 19 11:33:55 2018


Gurobi 7.0.2 (mac64, Python) logging started Wed Sep 19 11:36:15 2018


Gurobi 7.0.2 (mac64, Python) logging started Wed Sep 19 11:38:01 2018


Gurobi 7.0.2 (mac64, Python) logging started Wed Sep 19 11:40:58 2018


Gurobi 7.0.2 (mac64, Python) logging started Wed Sep 19 11:42:29 2018


Gurobi 7.0.2 (mac64, Python) logging started Wed Sep 19 11:45:09 2018


Gurobi 7.0.2 (mac64, Python) logging started Wed Sep 19 11:45:23 2018


Gurobi 7.0.2 (mac64, Python) logging started Wed Sep 19 11:46:36 2018


Gurobi 7.0.2 (mac64, Python) logging started Wed Sep 19 11:48:40 2018


Gurobi 7.0.2 (mac64, Python) logging started Wed Sep 19 11:49:40 2018


Gurobi 7.0.2 (mac64, Python) logging started Wed Sep 19 12:13:47 2018


Gurobi 7.0.2 (mac64, Python) logging started Wed Sep 19 12:32:07 2018


Gurobi 7.0.2 (mac64, Python) logging started Wed Sep 19 12:34:38 2018


Gurobi 7.0.2 (mac64, Python) logging started Wed Sep 19 12:36:43 2018


Gurobi 7.0.2 (mac64, Python) logging started Wed Sep 19 12:37:10 2018


Gurobi 7.0.2 (mac64, Python) logging started Wed Sep 19 12:37:50 2018


Gurobi 7.0.2 (mac64, Python) logging started Wed Sep 19 12:38:03 2018


Gurobi 7.0.2 (mac64, Python) logging started Wed Sep 19 12:42:09 2018


Gurobi 7.0.2 (mac64, Python) logging started Wed Sep 19 13:25:10 2018


Gurobi 7.0.2 (mac64, Python) logging started Wed Sep 19 14:29:38 2018


Gurobi 7.0.2 (mac64, Python) logging started Wed Sep 19 15:08:08 2018


Gurobi 7.0.2 (mac64, Python) logging started Wed Sep 19 15:09:18 2018


Gurobi 7.0.2 (mac64, Python) logging started Wed Sep 19 15:50:23 2018


Gurobi 7.0.2 (mac64, Python) logging started Wed Sep 19 15:51:19 2018


Gurobi 7.0.2 (mac64, Python) logging started Wed Sep 19 15:52:40 2018


Gurobi 7.0.2 (mac64, Python) logging started Wed Sep 19 15:53:05 2018


Gurobi 7.0.2 (mac64, Python) logging started Wed Sep 19 15:55:25 2018


Gurobi 7.0.2 (mac64, Python) logging started Wed Sep 19 16:02:35 2018


Gurobi 7.0.2 (mac64, Python) logging started Wed Sep 19 16:34:57 2018


Gurobi 7.0.2 (mac64, Python) logging started Wed Sep 19 17:11:53 2018


Gurobi 7.0.2 (mac64, Python) logging started Wed Sep 19 17:14:35 2018


Gurobi 7.0.2 (mac64, Python) logging started Wed Sep 19 17:14:52 2018


Gurobi 7.0.2 (mac64, Python) logging started Wed Sep 19 17:15:14 2018


Gurobi 7.0.2 (mac64, Python) logging started Thu Sep 20 06:57:31 2018


Gurobi 7.0.2 (mac64, Python) logging started Thu Sep 20 09:00:59 2018


Gurobi 7.0.2 (mac64, Python) logging started Thu Sep 20 11:34:53 2018


Gurobi 7.0.2 (mac64, Python) logging started Thu Sep 20 11:35:12 2018


Gurobi 7.0.2 (mac64, Python) logging started Thu Sep 20 11:53:58 2018


Gurobi 7.0.2 (mac64, Python) logging started Thu Sep 20 11:54:32 2018


Gurobi 7.0.2 (mac64, Python) logging started Thu Sep 20 12:01:31 2018


Gurobi 7.0.2 (mac64, Python) logging started Thu Sep 20 12:08:18 2018


Gurobi 7.0.2 (mac64, Python) logging started Thu Sep 20 15:29:07 2018


Gurobi 7.0.2 (mac64, Python) logging started Thu Sep 20 15:38:15 2018


Gurobi 7.0.2 (mac64, Python) logging started Thu Sep 20 15:49:55 2018


Gurobi 7.0.2 (mac64, Python) logging started Thu Sep 20 15:52:29 2018


Gurobi 7.0.2 (mac64, Python) logging started Thu Sep 20 15:54:46 2018


Gurobi 7.0.2 (mac64, Python) logging started Thu Sep 20 16:02:13 2018


Gurobi 7.0.2 (mac64, Python) logging started Thu Sep 20 16:08:21 2018


Gurobi 7.0.2 (mac64, Python) logging started Thu Sep 20 16:25:25 2018


Gurobi 7.0.2 (mac64, Python) logging started Thu Sep 20 16:27:52 2018


Gurobi 7.0.2 (mac64, Python) logging started Thu Sep 20 16:36:00 2018


Gurobi 7.0.2 (mac64, Python) logging started Thu Sep 20 17:36:11 2018


Gurobi 7.0.2 (mac64, Python) logging started Thu Sep 20 17:43:58 2018


Gurobi 8.0.1 (mac64, Python) logging started Fri Sep 28 10:51:23 2018

Academic license - for non-commercial use only

Gurobi 8.0.1 (mac64, Python) logging started Fri Sep 28 10:51:43 2018

Academic license - for non-commercial use only

Gurobi 8.0.1 (mac64, Python) logging started Fri Sep 28 13:13:20 2018

Academic license - for non-commercial use only

Gurobi 8.0.1 (mac64, Python) logging started Fri Sep 28 13:31:30 2018

Academic license - for non-commercial use only

Gurobi 8.0.1 (mac64, Python) logging started Fri Sep 28 13:32:23 2018

Academic license - for non-commercial use only

Gurobi 8.0.1 (mac64, Python) logging started Fri Sep 28 13:34:20 2018

Academic license - for non-commercial use only

Gurobi 8.0.1 (mac64, Python) logging started Fri Sep 28 13:44:24 2018

Academic license - for non-commercial use only

Gurobi 8.0.1 (mac64, Python) logging started Fri Sep 28 13:45:24 2018

Academic license - for non-commercial use only

Gurobi 8.0.1 (mac64, Python) logging started Fri Sep 28 13:45:59 2018

Academic license - for non-commercial use only

Gurobi 8.0.1 (mac64, Python) logging started Fri Sep 28 13:47:45 2018

Academic license - for non-commercial use only

Gurobi 8.0.1 (mac64, Python) logging started Fri Sep 28 13:49:35 2018

Academic license - for non-commercial use only

Gurobi 8.0.1 (mac64, Python) logging started Fri Sep 28 13:51:48 2018

Academic license - for non-commercial use only

Gurobi 8.0.1 (mac64, Python) logging started Fri Sep 28 13:53:09 2018

Academic license - for non-commercial use only

Gurobi 8.0.1 (mac64, Python) logging started Fri Sep 28 13:55:53 2018

Academic license - for non-commercial use only

Gurobi 8.0.1 (mac64, Python) logging started Fri Oct 12 10:22:37 2018

Academic license - for non-commercial use only

Gurobi 8.0.1 (mac64, Python) logging started Fri Oct 12 10:33:58 2018

Academic license - for non-commercial use only

Gurobi 8.0.1 (mac64, Python) logging started Fri Oct 12 10:34:24 2018

Academic license - for non-commercial use only

Gurobi 8.0.1 (mac64, Python) logging started Fri Oct 12 10:34:52 2018

Academic license - for non-commercial use only

Gurobi 8.0.1 (mac64, Python) logging started Fri Oct 12 10:35:41 2018

Academic license - for non-commercial use only

Gurobi 8.0.1 (mac64, Python) logging started Fri Oct 12 10:38:36 2018

Academic license - for non-commercial use only

Gurobi 8.0.1 (mac64, Python) logging started Fri Oct 12 10:39:06 2018

Academic license - for non-commercial use only

Gurobi 8.0.1 (mac64, Python) logging started Fri Oct 12 10:43:10 2018

Academic license - for non-commercial use only

Gurobi 8.0.1 (mac64, Python) logging started Fri Oct 12 10:43:54 2018

Academic license - for non-commercial use only

Gurobi 8.0.1 (mac64, Python) logging started Fri Oct 12 10:45:39 2018

Academic license - for non-commercial use only

Gurobi 8.0.1 (mac64, Python) logging started Fri Oct 12 10:48:42 2018

Academic license - for non-commercial use only

Gurobi 8.0.1 (mac64, Python) logging started Fri Oct 12 11:11:16 2018

Academic license - for non-commercial use only

Gurobi 8.0.1 (mac64, Python) logging started Fri Oct 12 11:11:46 2018

Academic license - for non-commercial use only

Gurobi 8.0.1 (mac64, Python) logging started Fri Oct 12 11:12:58 2018

Academic license - for non-commercial use only

Gurobi 8.0.1 (mac64, Python) logging started Fri Oct 12 11:16:52 2018

Academic license - for non-commercial use only

Gurobi 8.0.1 (mac64, Python) logging started Fri Oct 12 11:18:51 2018

Academic license - for non-commercial use only

Gurobi 8.0.1 (mac64, Python) logging started Fri Oct 12 11:25:36 2018

Academic license - for non-commercial use only

Gurobi 8.0.1 (mac64, Python) logging started Fri Oct 12 11:27:29 2018

Academic license - for non-commercial use only

Gurobi 8.0.1 (mac64, Python) logging started Fri Oct 12 11:27:39 2018

Academic license - for non-commercial use only

Gurobi 8.0.1 (mac64, Python) logging started Fri Oct 12 11:33:12 2018

Academic license - for non-commercial use only

Gurobi 8.0.1 (mac64, Python) logging started Fri Oct 12 11:43:35 2018

Academic license - for non-commercial use only

Gurobi 8.0.1 (mac64, Python) logging started Fri Oct 12 11:49:43 2018

Academic license - for non-commercial use only

Gurobi 8.0.1 (mac64, Python) logging started Fri Oct 12 11:51:39 2018

Academic license - for non-commercial use only

Gurobi 8.0.1 (mac64, Python) logging started Fri Oct 12 11:53:27 2018

Academic license - for non-commercial use only

Gurobi 8.0.1 (mac64, Python) logging started Tue Nov 13 08:51:39 2018

Academic license - for non-commercial use only
